0
Node Left Objective IInf Best_Integer Best_Bound ItCnt Gap
0 0 43.0201 6 43.0201 54
0 0 43.0201 6 LiftProj:3 61
0 0 43.2905 9 LiftProj:3 64
0 0 43.4271 9 LiftProj:5 67
0 0 43.8709 9 LiftProj:6 75
0 0 43.9787 9 LiftProj:6 77
0 0 44.3020 9 LiftProj:6 83
0 0 44.6038 9 LiftProj:7 90
0 0 44.8047 8 LiftProj:5 95
0 0 44.9565 9 LiftProj:7 101
0 0 45.4582 9 LiftProj:5 108
0 0 45.5086 9 LiftProj:5 111
0 0 45.8111 9 LiftProj:5 118
0 0 45.8713 9 LiftProj:4 121
0 0 45.8773 9 LiftProj:4 123
0+ 0 nan nan 52.9813 45.8773 nan 13.41%
0+ 0 nan nan 52.9813 45.8773 nan 13.41%
0 0 47.8764 5 52.9813 47.8764 196 9.64%
0 0 48.7444 5 52.9813 LiftProj:7 206 8.00%
0 0 50.4835 5 52.9813 LiftProj:4 222 4.71%
0 0 51.2826 5 52.9813 LiftProj:3 234 3.21%
0 0 51.8175 4 52.9813 LiftProj:3 245 2.20%
0 0 52.3813 4 52.9813 LiftProj:2 251 1.13%
0 0 cutoff 52.9813 52.5832 261 0.75% 0
CPXPARAM_MIP_Cuts_LiftProj-FlowCovers:LiftProj 0
CPXPARAM_MIP_Cuts_LiftProj-FlowCovers:FlowCovers 4
1
Node Left Objective IInf Best_Integer Best_Bound ItCnt Gap
0 0 2.5600 6 2.5600 61
0 2 2.5600 6 2.5600 61 0 0
CPXPARAM_MIP_Cuts_LiftProj-FlowCovers:LiftProj 0
CPXPARAM_MIP_Cuts_LiftProj-FlowCovers:FlowCovers 0
2
Node Left Objective IInf Best_Integer Best_Bound ItCnt Gap
0 0 40.5363 2 40.5363 49
0+ 0 nan nan 40.6800 40.5363 nan 0.35%
0+ 0 nan nan 40.6800 40.5363 nan 0.35%
0 0 40.5363 2 40.6800 40.5363 97 0.35%
0 2 40.5363 2 40.6800 40.5363 103 0.35%
CPXPARAM_MIP_Cuts_LiftProj-FlowCovers:LiftProj 0
CPXPARAM_MIP_Cuts_LiftProj-FlowCovers:FlowCovers 0
3
Node Left Objective IInf Best_Integer Best_Bound ItCnt Gap
0 0 6.4123 1 6.4123 41
0+ 0 nan nan 6.4123 6.4123 nan 0.00%
0 0 cutoff 6.4123 6.4123 41 0.00% 0
CPXPARAM_MIP_Cuts_LiftProj-FlowCovers:LiftProj 0
CPXPARAM_MIP_Cuts_LiftProj-FlowCovers:FlowCovers 0
4
Node Left Objective IInf Best_Integer Best_Bound ItCnt Gap
0 0 50.7422 6 50.7422 57
0 2 50.7422 6 50.7422 57 0 0
CPXPARAM_MIP_Cuts_LiftProj-FlowCovers:LiftProj 0
CPXPARAM_MIP_Cuts_LiftProj-FlowCovers:FlowCovers 0
5
Node Left Objective IInf Best_Integer Best_Bound ItCnt Gap
0 0 2.3864 6 2.3864 56
0 0 2.3864 6 LiftProj:2 60
0 0 2.3864 7 LiftProj:1 62
0 2 2.3864 7 2.3864 62 0 0
CPXPARAM_MIP_Cuts_LiftProj-FlowCovers:LiftProj 0
CPXPARAM_MIP_Cuts_LiftProj-FlowCovers:FlowCovers 3
6
Node Left Objective IInf Best_Integer Best_Bound ItCnt Gap
0+ 0 nan nan 698.6785 -80.3724 nan 111.50%
0 0 49.1770 2 698.6785 49.1770 57 92.96%
0+ 0 nan nan 49.2390 49.1770 nan 0.13%
0+ 0 nan nan 49.2390 49.1770 nan 0.13%
0 0 49.1770 2 49.2390 49.1770 124 0.13%
0 1 49.1770 2 49.2390 49.1770 129 0.13%
CPXPARAM_MIP_Cuts_LiftProj-FlowCovers:LiftProj 0
CPXPARAM_MIP_Cuts_LiftProj-FlowCovers:FlowCovers 0
7
Node Left Objective IInf Best_Integer Best_Bound ItCnt Gap
0 0 7.4387 2 7.4387 48
0+ 0 nan nan 9.7351 7.4387 nan 23.59%
0 0 7.4387 2 9.7351 LiftProj:1 50 23.59%
0 2 7.4387 2 9.7351 7.4387 50 23.59%
CPXPARAM_MIP_Cuts_LiftProj-FlowCovers:LiftProj 0
CPXPARAM_MIP_Cuts_LiftProj-FlowCovers:FlowCovers 1
8
Node Left Objective IInf Best_Integer Best_Bound ItCnt Gap
0 0 65.7942 6 65.7942 62
0 0 65.7954 9 LiftProj:4 72
0 0 65.8098 9 LiftProj:4 75
0 0 65.8191 9 LiftProj:5 77
0 0 65.8225 9 LiftProj:5 79
0 0 65.8259 8 LiftProj:8 81
0 0 65.8325 9 LiftProj:5 86
0 0 65.8395 8 LiftProj:7 89
0 0 65.8639 8 LiftProj:2 94
0 0 65.8737 8 LiftProj:4 98
0 0 65.9055 9 LiftProj:3 106
0 0 65.9288 8 LiftProj:1 109
0 0 65.9351 8 LiftProj:4 113
0 0 65.9364 9 LiftProj:1 115
0 2 65.9450 8 65.9801 115 0 0
CPXPARAM_MIP_Cuts_LiftProj-FlowCovers:LiftProj 0
CPXPARAM_MIP_Cuts_LiftProj-FlowCovers:FlowCovers 8
9
Node Left Objective IInf Best_Integer Best_Bound ItCnt Gap
0 0 11.8594 6 11.8594 54
0 0 11.9505 9 Cuts:5 64
0 2 11.9505 9 12.5659 64 0 0
CPXPARAM_MIP_Cuts_LiftProj-FlowCovers:LiftProj 0
CPXPARAM_MIP_Cuts_LiftProj-FlowCovers:FlowCovers 4
10
Node Left Objective IInf Best_Integer Best_Bound ItCnt Gap
0 0 60.5073 2 60.5073 52
0 0 60.5073 2 LiftProj:1 54
0+ 0 nan nan 60.5115 60.5073 nan 0.01%
CPXPARAM_MIP_Cuts_LiftProj-FlowCovers:LiftProj 0
CPXPARAM_MIP_Cuts_LiftProj-FlowCovers:FlowCovers 1
11
Node Left Objective IInf Best_Integer Best_Bound ItCnt Gap
0 0 16.6537 2 16.6537 50
0+ 0 nan nan 16.6575 16.6537 nan 0.02%
0+ 0 nan nan 16.6575 16.6537 nan 0.02%
0 0 16.6537 2 16.6575 16.6537 104 0.02%
0 2 16.6537 2 16.6575 16.6537 110 0.02%
CPXPARAM_MIP_Cuts_LiftProj-FlowCovers:LiftProj 0
CPXPARAM_MIP_Cuts_LiftProj-FlowCovers:FlowCovers 0
12
Node Left Objective IInf Best_Integer Best_Bound ItCnt Gap
0 0 44.2061 6 44.2061 61
0 0 44.3946 9 LiftProj:4 72
0 0 44.5042 9 LiftProj:1 76
0 0 44.8022 9 LiftProj:2 80
0 0 45.1710 9 LiftProj:5 86
0 0 45.5098 9 LiftProj:3 91
0 0 46.2785 9 LiftProj:5 100
0 0 47.0430 9 LiftProj:7 108
0 0 47.1407 9 LiftProj:5 115
0 0 47.1540 9 LiftProj:6 116
0 0 47.2104 9 LiftProj:5 119
0 0 47.2311 9 LiftProj:5 123
0 0 47.5883 9 LiftProj:6 135
0 0 47.6202 9 LiftProj:6 136
0 0 47.6809 9 LiftProj:5 143
0 0 47.7309 9 LiftProj:3 147
0 0 47.7844 9 LiftProj:4 152
0 0 47.8241 9 LiftProj:5 158
0 0 47.9253 9 LiftProj:10 164
0 0 47.9272 9 LiftProj:5 166
0 0 47.9470 9 LiftProj:4 169
0 0 47.9845 9 LiftProj:4 173
0 0 48.0344 9 LiftProj:5 179
0 0 48.0615 9 LiftProj:5 185
0 0 48.0810 9 LiftProj:5 193
0 0 48.0824 9 LiftProj:1 195
0+ 0 nan nan 74.1190 48.0824 nan 35.13%
0 2 48.1011 8 74.1190 48.9989 195 33.89%
CPXPARAM_MIP_Cuts_LiftProj-FlowCovers:LiftProj 0
CPXPARAM_MIP_Cuts_LiftProj-FlowCovers:FlowCovers 15
13
Node Left Objective IInf Best_Integer Best_Bound ItCnt Gap
0 0 10.2945 6 10.2945 57
0+ 0 nan nan 16.4316 10.2945 nan 37.35%
0 0 10.2945 6 16.4316 Flowcuts:1 58 37.35%
0 0 10.2945 6 16.4316 Cuts:2 61 37.35%
0 2 10.2945 6 16.4316 10.2945 61 37.35%
CPXPARAM_MIP_Cuts_LiftProj-FlowCovers:LiftProj 1
CPXPARAM_MIP_Cuts_LiftProj-FlowCovers:FlowCovers 1
14
Node Left Objective IInf Best_Integer Best_Bound ItCnt Gap
0 0 46.5469 2 46.5469 53
0+ 0 nan nan 47.4290 46.5469 nan 1.86%
0+ 0 nan nan 47.4290 46.5469 nan 1.86%
0 0 46.5469 2 47.4290 46.5469 100 1.86%
0 1 46.5469 2 47.4290 46.5469 105 1.86%
CPXPARAM_MIP_Cuts_LiftProj-FlowCovers:LiftProj 0
CPXPARAM_MIP_Cuts_LiftProj-FlowCovers:FlowCovers 0
15
Node Left Objective IInf Best_Integer Best_Bound ItCnt Gap
0+ 0 nan nan 754.6210 -94.3684 nan 112.51%
0 0 10.7585 2 754.6210 10.7585 50 98.57%
0 0 10.7585 2 754.6210 LiftProj:1 52 98.57%
0+ 0 nan nan 11.1073 10.7585 nan 3.14%
0+ 0 nan nan 11.1073 10.7585 nan 3.14%
0 0 10.7585 2 11.1073 10.7585 97 3.14%
0 1 10.7585 2 11.1073 10.7585 102 3.14%
CPXPARAM_MIP_Cuts_LiftProj-FlowCovers:LiftProj 0
CPXPARAM_MIP_Cuts_LiftProj-FlowCovers:FlowCovers 1
16
Node Left Objective IInf Best_Integer Best_Bound ItCnt Gap
0 0 58.8715 6 58.8715 57
0 0 58.8715 6 LiftProj:1 59
0 0 58.8715 7 LiftProj:1 61
0+ 0 nan nan 61.8856 58.8715 nan 4.87%
0+ 0 nan nan 61.8856 58.8715 nan 4.87%
0 0 58.8715 6 61.8856 58.8715 120 4.87%
0 0 58.8715 6 61.8856 LiftProj:2 124 4.87%
0 2 59.0947 7 61.8856 59.2883 124 4.20%
CPXPARAM_MIP_Cuts_LiftProj-FlowCovers:LiftProj 0
CPXPARAM_MIP_Cuts_LiftProj-FlowCovers:FlowCovers 2
17
Node Left Objective IInf Best_Integer Best_Bound ItCnt Gap
0 0 10.2675 6 10.2675 65
0 0 10.2675 6 LiftProj:1 67
0 0 10.2675 6 LiftProj:2 69
0 2 10.2675 6 10.2675 69 0 0
CPXPARAM_MIP_Cuts_LiftProj-FlowCovers:LiftProj 0
CPXPARAM_MIP_Cuts_LiftProj-FlowCovers:FlowCovers 2
18
Node Left Objective IInf Best_Integer Best_Bound ItCnt Gap
0+ 0 nan nan 850.5680 -92.8051 nan 110.91%
0 0 58.3813 2 850.5680 58.3813 51 93.14%
0 0 58.3813 2 850.5680 LiftProj:1 53 93.14%
0+ 0 nan nan 66.4612 58.3813 nan 12.16%
0 1 58.3813 2 66.4612 58.3813 55 12.16%
CPXPARAM_MIP_Cuts_LiftProj-FlowCovers:LiftProj 0
CPXPARAM_MIP_Cuts_LiftProj-FlowCovers:FlowCovers 1
19
Node Left Objective IInf Best_Integer Best_Bound ItCnt Gap
0+ 0 nan nan 682.2187 -97.6235 nan 114.31%
0 0 15.5882 2 682.2187 15.5882 47 97.72%
0+ 0 nan nan 15.6606 15.5882 nan 0.46%
0+ 0 nan nan 15.6606 15.5882 nan 0.46%
0 0 15.5882 2 15.6606 15.5882 89 0.46%
0 1 15.5882 2 15.6606 15.5882 94 0.46%
CPXPARAM_MIP_Cuts_LiftProj-FlowCovers:LiftProj 0
CPXPARAM_MIP_Cuts_LiftProj-FlowCovers:FlowCovers 0
20
Node Left Objective IInf Best_Integer Best_Bound ItCnt Gap
0 0 31.6179 6 31.6179 61
0 2 31.6179 6 31.6179 61 0 0
CPXPARAM_MIP_Cuts_LiftProj-FlowCovers:LiftProj 0
CPXPARAM_MIP_Cuts_LiftProj-FlowCovers:FlowCovers 0
21
Node Left Objective IInf Best_Integer Best_Bound ItCnt Gap
0 0 5.4416 6 5.4416 61
0 0 5.4416 6 LiftProj:1 63
0 0 5.4416 7 LiftProj:1 65
0 2 5.4416 6 5.4416 65 0 0
CPXPARAM_MIP_Cuts_LiftProj-FlowCovers:LiftProj 0
CPXPARAM_MIP_Cuts_LiftProj-FlowCovers:FlowCovers 2
22
Node Left Objective IInf Best_Integer Best_Bound ItCnt Gap
0 0 28.4414 2 28.4414 42
0+ 0 nan nan 28.5540 28.4414 nan 0.39%
0+ 0 nan nan 28.5540 28.4414 nan 0.39%
0 0 28.4414 2 28.5540 28.4414 86 0.39%
0 0 28.4414 2 28.5540 LiftProj:1 88 0.39%
0 1 28.4414 2 28.5540 28.4414 91 0.39%
CPXPARAM_MIP_Cuts_LiftProj-FlowCovers:LiftProj 0
CPXPARAM_MIP_Cuts_LiftProj-FlowCovers:FlowCovers 1
23
Node Left Objective IInf Best_Integer Best_Bound ItCnt Gap
0 0 3.9556 2 3.9556 52
0 0 3.9556 2 LiftProj:1 54
0+ 0 nan nan 4.0841 3.9556 nan 3.15%
0+ 0 nan nan 4.0841 3.9556 nan 3.15%
0 0 3.9556 2 4.0841 3.9556 105 3.15%
0 0 3.9556 2 4.0841 LiftProj:1 108 3.15%
0 0 3.9556 2 4.0841 Cuts:2 111 3.15%
0 2 3.9556 2 4.0841 3.9556 111 3.15%
CPXPARAM_MIP_Cuts_LiftProj-FlowCovers:LiftProj 1
CPXPARAM_MIP_Cuts_LiftProj-FlowCovers:FlowCovers 2
24
Node Left Objective IInf Best_Integer Best_Bound ItCnt Gap
0 0 34.8025 6 34.8025 60
0+ 0 nan nan 38.6713 34.8025 nan 10.00%
0+ 0 nan nan 38.6713 34.8025 nan 10.00%
0 0 34.8025 6 38.6713 34.8025 120 10.00%
0 2 34.8025 6 38.6713 34.8025 120 10.00%
CPXPARAM_MIP_Cuts_LiftProj-FlowCovers:LiftProj 0
CPXPARAM_MIP_Cuts_LiftProj-FlowCovers:FlowCovers 0
25
Node Left Objective IInf Best_Integer Best_Bound ItCnt Gap
0 0 0.4196 6 0.4196 63
0 2 0.4196 6 0.4196 63 0 0
CPXPARAM_MIP_Cuts_LiftProj-FlowCovers:LiftProj 0
CPXPARAM_MIP_Cuts_LiftProj-FlowCovers:FlowCovers 0
26
Node Left Objective IInf Best_Integer Best_Bound ItCnt Gap
0 0 0 36.9182 36.9182 54 0.00% 0
CPXPARAM_MIP_Cuts_LiftProj-FlowCovers:LiftProj 0
CPXPARAM_MIP_Cuts_LiftProj-FlowCovers:FlowCovers 0
27
Node Left Objective IInf Best_Integer Best_Bound ItCnt Gap
0 0 4.5323 2 4.5323 44
0+ 0 nan nan 4.5514 4.5323 nan 0.42%
0+ 0 nan nan 4.5514 4.5323 nan 0.42%
0 0 4.5323 2 4.5514 4.5323 96 0.42%
0 1 4.5323 2 4.5514 4.5323 101 0.42%
CPXPARAM_MIP_Cuts_LiftProj-FlowCovers:LiftProj 0
CPXPARAM_MIP_Cuts_LiftProj-FlowCovers:FlowCovers 0
28
Node Left Objective IInf Best_Integer Best_Bound ItCnt Gap
0 0 63.6500 6 63.6500 54
0 0 63.6500 6 LiftProj:1 56
0 0 63.6500 6 LiftProj:2 58
0+ 0 nan nan 74.1734 63.6500 nan 14.19%
0+ 0 nan nan 74.1734 63.6500 nan 14.19%
0 0 65.4909 5 74.1734 65.4909 108 11.71%
0 0 69.6371 5 74.1734 LiftProj:2 117 6.12%
0 0 70.1060 5 74.1734 Cuts:4 125 5.48%
0 0 70.3446 5 74.1734 Cuts:3 131 5.16%
0 0 71.3121 5 74.1734 Cuts:5 141 3.86%
0 0 71.3121 5 74.1734 Cuts:3 142 3.86%
0 0 71.3121 5 74.1734 LiftProj:1 143 3.86%
0 0 cutoff 74.1734 71.3121 143 3.86% 0
CPXPARAM_MIP_Cuts_LiftProj-FlowCovers:LiftProj 1
CPXPARAM_MIP_Cuts_LiftProj-FlowCovers:FlowCovers 4
29
Node Left Objective IInf Best_Integer Best_Bound ItCnt Gap
0+ 0 nan nan 994.8986 -114.3356 nan 111.49%
0+ 0 nan nan 37.2949 -114.3356 nan 406.57%
0 0 6.3884 6 37.2949 6.3884 54 82.87%
0 0 6.3884 6 37.2949 LiftProj:2 58 82.87%
0 0 6.3884 6 37.2949 LiftProj:2 60 82.87%
0 2 6.3884 7 37.2949 6.3884 60 82.87%
CPXPARAM_MIP_Cuts_LiftProj-FlowCovers:LiftProj 0
CPXPARAM_MIP_Cuts_LiftProj-FlowCovers:FlowCovers 3
30
Node Left Objective IInf Best_Integer Best_Bound ItCnt Gap
0+ 0 nan nan 514.4143 -106.7235 nan 120.75%
0+ 0 nan nan 83.5731 -106.7235 nan 227.70%
0 0 69.0899 2 83.5731 69.0899 47 17.33%
0 0 69.0899 2 83.5731 LiftProj:1 49 17.33%
0+ 0 nan nan 69.6843 69.0899 nan 0.85%
0+ 0 nan nan 69.6843 69.0899 nan 0.85%
0 0 69.0899 2 69.6843 69.0899 98 0.85%
0 2 69.0899 2 69.6843 69.0899 98 0.85%
CPXPARAM_MIP_Cuts_LiftProj-FlowCovers:LiftProj 0
CPXPARAM_MIP_Cuts_LiftProj-FlowCovers:FlowCovers 1
31
Node Left Objective IInf Best_Integer Best_Bound ItCnt Gap
0 0 7.6579 2 7.6579 41
0+ 0 nan nan 8.0780 7.6579 nan 5.20%
0 0 7.6579 2 8.0780 LiftProj:1 43 5.20%
0+ 0 nan nan 8.0780 7.6579 nan 5.20%
0 0 7.6579 2 8.0780 7.6579 85 5.20%
0 1 7.6579 2 8.0780 7.6579 90 5.20%
CPXPARAM_MIP_Cuts_LiftProj-FlowCovers:LiftProj 0
CPXPARAM_MIP_Cuts_LiftProj-FlowCovers:FlowCovers 1
32
Node Left Objective IInf Best_Integer Best_Bound ItCnt Gap
0 0 46.2013 6 46.2013 60
0 0 46.2013 6 LiftProj:1 62
0 0 46.2013 7 LiftProj:1 64
0 2 46.2013 6 46.2013 64 0 0
CPXPARAM_MIP_Cuts_LiftProj-FlowCovers:LiftProj 0
CPXPARAM_MIP_Cuts_LiftProj-FlowCovers:FlowCovers 2
33
Node Left Objective IInf Best_Integer Best_Bound ItCnt Gap
0 0 0.8948 6 0.8948 57
0 0 0.8948 6 LiftProj:2 61
0 0 0.8948 7 LiftProj:1 63
0 2 3.9150 6 4.3009 63 0 0
CPXPARAM_MIP_Cuts_LiftProj-FlowCovers:LiftProj 0
CPXPARAM_MIP_Cuts_LiftProj-FlowCovers:FlowCovers 3
34
Node Left Objective IInf Best_Integer Best_Bound ItCnt Gap
0 0 41.8656 2 41.8656 44
0 0 41.8656 2 LiftProj:1 46
0+ 0 nan nan 41.9255 41.8656 nan 0.14%
0+ 0 nan nan 41.9255 41.8656 nan 0.14%
0 0 41.8656 2 41.9255 41.8656 86 0.14%
0 2 41.8656 2 41.9255 41.8656 88 0.14%
CPXPARAM_MIP_Cuts_LiftProj-FlowCovers:LiftProj 0
CPXPARAM_MIP_Cuts_LiftProj-FlowCovers:FlowCovers 1
35
Node Left Objective IInf Best_Integer Best_Bound ItCnt Gap
0 0 10.6421 2 10.6421 45
0 0 10.6421 2 LiftProj:1 47
0+ 0 nan nan 12.3010 10.6421 nan 13.49%
0+ 0 nan nan 12.3010 10.6421 nan 13.49%
0 0 10.6421 2 12.3010 10.6421 92 13.49%
0 0 10.6421 2 12.3010 LiftProj:1 94 13.49%
0 2 10.6421 2 12.3010 10.6421 94 13.49%
CPXPARAM_MIP_Cuts_LiftProj-FlowCovers:LiftProj 0
CPXPARAM_MIP_Cuts_LiftProj-FlowCovers:FlowCovers 2
36
Node Left Objective IInf Best_Integer Best_Bound ItCnt Gap
0 0 48.4886 6 48.4886 59
0 0 48.4886 6 LiftProj:2 63
0+ 0 nan nan 52.9256 48.4886 nan 8.38%
0 0 48.4886 7 52.9256 LiftProj:1 65 8.38%
0+ 0 nan nan 52.9256 48.4886 nan 8.38%
0 0 48.4886 6 52.9256 48.4886 124 8.38%
0 2 48.5566 7 52.9256 48.6784 124 8.02%
CPXPARAM_MIP_Cuts_LiftProj-FlowCovers:LiftProj 0
CPXPARAM_MIP_Cuts_LiftProj-FlowCovers:FlowCovers 2
37
Node Left Objective IInf Best_Integer Best_Bound ItCnt Gap
0 0 -6.1266 6 -6.1266 62
0 0 -6.1266 6 LiftProj:1 64
0 0 -6.1266 7 LiftProj:1 66
0+ 0 nan nan 10.0443 -6.1266 nan 161.00%
0 2 -6.1266 7 10.0443 -6.1266 66 161.00%
CPXPARAM_MIP_Cuts_LiftProj-FlowCovers:LiftProj 0
CPXPARAM_MIP_Cuts_LiftProj-FlowCovers:FlowCovers 2
38
Node Left Objective IInf Best_Integer Best_Bound ItCnt Gap
0 0 47.4773 2 47.4773 45
0+ 0 nan nan 47.5785 47.4773 nan 0.21%
0+ 0 nan nan 47.5785 47.4773 nan 0.21%
0 0 47.4773 2 47.5785 47.4773 92 0.21%
0 1 47.4773 2 47.5785 47.4773 97 0.21%
CPXPARAM_MIP_Cuts_LiftProj-FlowCovers:LiftProj 0
CPXPARAM_MIP_Cuts_LiftProj-FlowCovers:FlowCovers 0
39
Node Left Objective IInf Best_Integer Best_Bound ItCnt Gap
0 0 7.0905 2 7.0905 43
0 0 7.0905 2 LiftProj:1 45
0+ 0 nan nan 7.1260 7.0905 nan 0.50%
0+ 0 nan nan 7.1260 7.0905 nan 0.50%
0 0 7.0905 2 7.1260 7.0905 92 0.50%
0 2 7.0905 2 7.1260 7.0905 98 0.50%
CPXPARAM_MIP_Cuts_LiftProj-FlowCovers:LiftProj 0
CPXPARAM_MIP_Cuts_LiftProj-FlowCovers:FlowCovers 1
